; benchmark generated from python API
(set-info :status unknown)
(declare-fun x_months () Int)
(declare-fun x_beta () Int)
(declare-fun y_months () Int)
(declare-fun y_beta () Int)
(assert
 (<= (- 1200) x_months))
(assert
 (>= 1199 x_months))
(assert
 (let ((?x4773 (mod x_months 48)))
 (let ((?x211 ((as const (Array Int Int)) 0)))
 (let ((?x213 (store ?x211 0 31)))
 (let ((?x216 (store ?x213 1 30)))
 (let ((?x218 (store ?x216 2 31)))
 (let ((?x220 (store ?x218 3 30)))
 (let ((?x222 (store ?x220 4 31)))
 (let ((?x224 (store ?x222 5 31)))
 (let ((?x226 (store ?x224 6 30)))
 (let ((?x228 (store ?x226 7 31)))
 (let ((?x230 (store ?x228 8 30)))
 (let ((?x232 (store ?x230 9 31)))
 (let ((?x234 (store ?x232 10 31)))
 (let ((?x237 (store ?x234 11 28)))
 (let ((?x239 (store ?x237 12 31)))
 (let ((?x241 (store ?x239 13 30)))
 (let ((?x243 (store ?x241 14 31)))
 (let ((?x245 (store ?x243 15 30)))
 (let ((?x247 (store ?x245 16 31)))
 (let ((?x249 (store ?x247 17 31)))
 (let ((?x251 (store ?x249 18 30)))
 (let ((?x253 (store ?x251 19 31)))
 (let ((?x255 (store ?x253 20 30)))
 (let ((?x257 (store ?x255 21 31)))
 (let ((?x259 (store ?x257 22 31)))
 (let ((?x261 (store ?x259 23 28)))
 (let ((?x263 (store ?x261 24 31)))
 (let ((?x265 (store ?x263 25 30)))
 (let ((?x267 (store ?x265 26 31)))
 (let ((?x269 (store ?x267 27 30)))
 (let ((?x270 (store ?x269 28 31)))
 (let ((?x272 (store ?x270 29 31)))
 (let ((?x273 (store ?x272 30 30)))
 (let ((?x274 (store ?x273 31 31)))
 (let ((?x276 (store ?x274 32 30)))
 (let ((?x278 (store ?x276 33 31)))
 (let ((?x280 (store ?x278 34 31)))
 (let ((?x282 (store ?x280 35 28)))
 (let ((?x284 (store ?x282 36 31)))
 (let ((?x286 (store ?x284 37 30)))
 (let ((?x288 (store ?x286 38 31)))
 (let ((?x290 (store ?x288 39 30)))
 (let ((?x292 (store ?x290 40 31)))
 (let ((?x294 (store ?x292 41 31)))
 (let ((?x296 (store ?x294 42 30)))
 (let ((?x298 (store ?x296 43 31)))
 (let ((?x300 (store ?x298 44 30)))
 (let ((?x302 (store ?x300 45 31)))
 (let ((?x304 (store ?x302 46 31)))
 (let ((?x306 (store ?x304 47 29)))
 (let ((?x2330 (select ?x306 ?x4773)))
 (let ((?x1883 (ite (or (= 22802 (+ x_months 24003)) (= 25202 (+ x_months 24003))) 28 ?x2330)))
 (let (($x3312 (<= 0 x_beta)))
 (and $x3312 (< x_beta ?x1883))))))))))))))))))))))))))))))))))))))))))))))))))))))))
(assert
 (<= (- 1200) y_months))
(assert
 (>= 1199 y_months))
(assert
 (let ((?x2644 (mod y_months 48)))
 (let ((?x211 ((as const (Array Int Int)) 0)))
 (let ((?x213 (store ?x211 0 31)))
 (let ((?x216 (store ?x213 1 30)))
 (let ((?x218 (store ?x216 2 31)))
 (let ((?x220 (store ?x218 3 30)))
 (let ((?x222 (store ?x220 4 31)))
 (let ((?x224 (store ?x222 5 31)))
 (let ((?x226 (store ?x224 6 30)))
 (let ((?x228 (store ?x226 7 31)))
 (let ((?x230 (store ?x228 8 30)))
 (let ((?x232 (store ?x230 9 31)))
 (let ((?x234 (store ?x232 10 31)))
 (let ((?x237 (store ?x234 11 28)))
 (let ((?x239 (store ?x237 12 31)))
 (let ((?x241 (store ?x239 13 30)))
 (let ((?x243 (store ?x241 14 31)))
 (let ((?x245 (store ?x243 15 30)))
 (let ((?x247 (store ?x245 16 31)))
 (let ((?x249 (store ?x247 17 31)))
 (let ((?x251 (store ?x249 18 30)))
 (let ((?x253 (store ?x251 19 31)))
 (let ((?x255 (store ?x253 20 30)))
 (let ((?x257 (store ?x255 21 31)))
 (let ((?x259 (store ?x257 22 31)))
 (let ((?x261 (store ?x259 23 28)))
 (let ((?x263 (store ?x261 24 31)))
 (let ((?x265 (store ?x263 25 30)))
 (let ((?x267 (store ?x265 26 31)))
 (let ((?x269 (store ?x267 27 30)))
 (let ((?x270 (store ?x269 28 31)))
 (let ((?x272 (store ?x270 29 31)))
 (let ((?x273 (store ?x272 30 30)))
 (let ((?x274 (store ?x273 31 31)))
 (let ((?x276 (store ?x274 32 30)))
 (let ((?x278 (store ?x276 33 31)))
 (let ((?x280 (store ?x278 34 31)))
 (let ((?x282 (store ?x280 35 28)))
 (let ((?x284 (store ?x282 36 31)))
 (let ((?x286 (store ?x284 37 30)))
 (let ((?x288 (store ?x286 38 31)))
 (let ((?x290 (store ?x288 39 30)))
 (let ((?x292 (store ?x290 40 31)))
 (let ((?x294 (store ?x292 41 31)))
 (let ((?x296 (store ?x294 42 30)))
 (let ((?x298 (store ?x296 43 31)))
 (let ((?x300 (store ?x298 44 30)))
 (let ((?x302 (store ?x300 45 31)))
 (let ((?x304 (store ?x302 46 31)))
 (let ((?x306 (store ?x304 47 29)))
 (let ((?x477 (select ?x306 ?x2644)))
 (let ((?x4019 (ite (or (= 22802 (+ y_months 24003)) (= 25202 (+ y_months 24003))) 28 ?x477)))
 (and (<= 0 y_beta) (< y_beta ?x4019)))))))))))))))))))))))))))))))))))))))))))))))))))))))
(assert
 (let (($x3002 (and (= x_months (- (+ (* 2019 12) 12) 24003)) (<= 30 x_beta))))
 (or (> x_months (- (+ (* 2019 12) 12) 24003)) $x3002)))
(assert
 (let (($x4461 (and (= x_months (- (+ (* 2020 12) 2) 24003)) (>= 0 x_beta))))
 (or (< x_months (- (+ (* 2020 12) 2) 24003)) $x4461)))
(assert
 (let ((?x5222 (+ x_months 12)))
 (let ((?x1767 (mod ?x5222 48)))
 (let ((?x3575 (ite (> 22803 (+ ?x5222 24003)) 1 (ite (<= 25203 (+ ?x5222 24003)) (- 1) 0))))
 (let ((?x211 ((as const (Array Int Int)) 0)))
 (let ((?x213 (store ?x211 0 31)))
 (let ((?x216 (store ?x213 1 30)))
 (let ((?x218 (store ?x216 2 31)))
 (let ((?x220 (store ?x218 3 30)))
 (let ((?x222 (store ?x220 4 31)))
 (let ((?x224 (store ?x222 5 31)))
 (let ((?x226 (store ?x224 6 30)))
 (let ((?x228 (store ?x226 7 31)))
 (let ((?x230 (store ?x228 8 30)))
 (let ((?x232 (store ?x230 9 31)))
 (let ((?x234 (store ?x232 10 31)))
 (let ((?x237 (store ?x234 11 28)))
 (let ((?x239 (store ?x237 12 31)))
 (let ((?x241 (store ?x239 13 30)))
 (let ((?x243 (store ?x241 14 31)))
 (let ((?x245 (store ?x243 15 30)))
 (let ((?x247 (store ?x245 16 31)))
 (let ((?x249 (store ?x247 17 31)))
 (let ((?x251 (store ?x249 18 30)))
 (let ((?x253 (store ?x251 19 31)))
 (let ((?x255 (store ?x253 20 30)))
 (let ((?x257 (store ?x255 21 31)))
 (let ((?x259 (store ?x257 22 31)))
 (let ((?x261 (store ?x259 23 28)))
 (let ((?x263 (store ?x261 24 31)))
 (let ((?x265 (store ?x263 25 30)))
 (let ((?x267 (store ?x265 26 31)))
 (let ((?x269 (store ?x267 27 30)))
 (let ((?x270 (store ?x269 28 31)))
 (let ((?x272 (store ?x270 29 31)))
 (let ((?x273 (store ?x272 30 30)))
 (let ((?x274 (store ?x273 31 31)))
 (let ((?x276 (store ?x274 32 30)))
 (let ((?x278 (store ?x276 33 31)))
 (let ((?x280 (store ?x278 34 31)))
 (let ((?x282 (store ?x280 35 28)))
 (let ((?x284 (store ?x282 36 31)))
 (let ((?x286 (store ?x284 37 30)))
 (let ((?x288 (store ?x286 38 31)))
 (let ((?x290 (store ?x288 39 30)))
 (let ((?x292 (store ?x290 40 31)))
 (let ((?x294 (store ?x292 41 31)))
 (let ((?x296 (store ?x294 42 30)))
 (let ((?x298 (store ?x296 43 31)))
 (let ((?x300 (store ?x298 44 30)))
 (let ((?x302 (store ?x300 45 31)))
 (let ((?x304 (store ?x302 46 31)))
 (let ((?x306 (store ?x304 47 29)))
 (let ((?x2424 (ite (or (= 22802 (+ ?x5222 24003)) (= 25202 (+ ?x5222 24003))) 28 (select ?x306 ?x1767))))
 (let ((?x3988 (- ?x2424 1)))
 (let (($x1982 (> 0 x_beta)))
 (let ((?x312 (store (store (store (store ?x211 0 0) 1 31) 2 61) 3 92)))
 (let ((?x320 (store (store (store (store ?x312 4 122) 5 153) 6 184) 7 214)))
 (let ((?x328 (store (store (store (store ?x320 8 245) 9 275) 10 306) 11 337)))
 (let ((?x336 (store (store (store (store ?x328 12 365) 13 396) 14 426) 15 457)))
 (let ((?x344 (store (store (store (store ?x336 16 487) 17 518) 18 549) 19 579)))
 (let ((?x352 (store (store (store (store ?x344 20 610) 21 640) 22 671) 23 702)))
 (let ((?x360 (store (store (store (store ?x352 24 730) 25 761) 26 791) 27 822)))
 (let ((?x368 (store (store (store (store ?x360 28 852) 29 883) 30 914) 31 944)))
 (let ((?x376 (store (store (store (store ?x368 32 975) 33 1005) 34 1036) 35 1067)))
 (let ((?x384 (store (store (store (store ?x376 36 1095) 37 1126) 38 1156) 39 1187)))
 (let ((?x392 (store (store (store (store ?x384 40 1217) 41 1248) 42 1279) 43 1309)))
 (let ((?x400 (store (store (store (store ?x392 44 1340) 45 1370) 46 1401) 47 1432)))
 (let ((?x5409 (+ (select ?x400 ?x1767) (ite $x1982 0 (ite (> x_beta ?x3988) ?x3988 x_beta)))))
 (let ((?x1272 (+ (+ ?x5409 ?x3575) 0)))
 (let ((?x2612 (+ ?x5222 (* (div ?x1272 1461) 48))))
 (let ((?x2660 (+ (+ ?x2612 (- 1 ?x1767)) 24003)))
 (let ((?x2621 (select ?x400 1)))
 (let ((?x2368 (mod ?x1272 1461)))
 (let (($x478 (>= ?x2368 (+ ?x2621 (ite (> 22803 ?x2660) 1 (ite (<= 25203 ?x2660) (- 1) 0))))))
 (let ((?x4245 (ite (> 22803 (+ (+ ?x2612 (- 2 ?x1767)) 24003)) 1 (ite (<= 25203 (+ (+ ?x2612 (- 2 ?x1767)) 24003)) (- 1) 0))))
 (let ((?x4819 (select ?x400 2)))
 (let ((?x4282 (ite (> 22803 (+ (+ ?x2612 (- 3 ?x1767)) 24003)) 1 (ite (<= 25203 (+ (+ ?x2612 (- 3 ?x1767)) 24003)) (- 1) 0))))
 (let ((?x1470 (select ?x400 3)))
 (let ((?x1278 (ite (>= ?x2368 (+ ?x1470 ?x4282)) 3 (ite (>= ?x2368 (+ ?x4819 ?x4245)) 2 (ite $x478 1 0)))))
 (let ((?x4336 (ite (> 22803 (+ (+ ?x2612 (- 4 ?x1767)) 24003)) 1 (ite (<= 25203 (+ (+ ?x2612 (- 4 ?x1767)) 24003)) (- 1) 0))))
 (let ((?x4052 (select ?x400 4)))
 (let ((?x3862 (ite (> 22803 (+ (+ ?x2612 (- 5 ?x1767)) 24003)) 1 (ite (<= 25203 (+ (+ ?x2612 (- 5 ?x1767)) 24003)) (- 1) 0))))
 (let ((?x1330 (select ?x400 5)))
 (let ((?x543 (ite (>= ?x2368 (+ ?x1330 ?x3862)) 5 (ite (>= ?x2368 (+ ?x4052 ?x4336)) 4 ?x1278))))
 (let ((?x3982 (ite (> 22803 (+ (+ ?x2612 (- 6 ?x1767)) 24003)) 1 (ite (<= 25203 (+ (+ ?x2612 (- 6 ?x1767)) 24003)) (- 1) 0))))
 (let ((?x903 (select ?x400 6)))
 (let ((?x1868 (ite (> 22803 (+ (+ ?x2612 (- 7 ?x1767)) 24003)) 1 (ite (<= 25203 (+ (+ ?x2612 (- 7 ?x1767)) 24003)) (- 1) 0))))
 (let ((?x5203 (select ?x400 7)))
 (let ((?x2598 (ite (>= ?x2368 (+ ?x5203 ?x1868)) 7 (ite (>= ?x2368 (+ ?x903 ?x3982)) 6 ?x543))))
 (let ((?x5290 (ite (> 22803 (+ (+ ?x2612 (- 8 ?x1767)) 24003)) 1 (ite (<= 25203 (+ (+ ?x2612 (- 8 ?x1767)) 24003)) (- 1) 0))))
 (let ((?x3407 (select ?x400 8)))
 (let ((?x4540 (ite (> 22803 (+ (+ ?x2612 (- 9 ?x1767)) 24003)) 1 (ite (<= 25203 (+ (+ ?x2612 (- 9 ?x1767)) 24003)) (- 1) 0))))
 (let ((?x2182 (select ?x400 9)))
 (let ((?x2630 (ite (>= ?x2368 (+ ?x2182 ?x4540)) 9 (ite (>= ?x2368 (+ ?x3407 ?x5290)) 8 ?x2598))))
 (let ((?x2689 (ite (> 22803 (+ (+ ?x2612 (- 10 ?x1767)) 24003)) 1 (ite (<= 25203 (+ (+ ?x2612 (- 10 ?x1767)) 24003)) (- 1) 0))))
 (let ((?x3136 (select ?x400 10)))
 (let ((?x2145 (ite (> 22803 (+ (+ ?x2612 (- 11 ?x1767)) 24003)) 1 (ite (<= 25203 (+ (+ ?x2612 (- 11 ?x1767)) 24003)) (- 1) 0))))
 (let ((?x1587 (select ?x400 11)))
 (let ((?x3607 (ite (>= ?x2368 (+ ?x1587 ?x2145)) 11 (ite (>= ?x2368 (+ ?x3136 ?x2689)) 10 ?x2630))))
 (let ((?x4233 (ite (> 22803 (+ (+ ?x2612 (- 12 ?x1767)) 24003)) 1 (ite (<= 25203 (+ (+ ?x2612 (- 12 ?x1767)) 24003)) (- 1) 0))))
 (let ((?x1383 (select ?x400 12)))
 (let ((?x3827 (ite (> 22803 (+ (+ ?x2612 (- 13 ?x1767)) 24003)) 1 (ite (<= 25203 (+ (+ ?x2612 (- 13 ?x1767)) 24003)) (- 1) 0))))
 (let ((?x4161 (select ?x400 13)))
 (let ((?x3193 (ite (>= ?x2368 (+ ?x4161 ?x3827)) 13 (ite (>= ?x2368 (+ ?x1383 ?x4233)) 12 ?x3607))))
 (let ((?x5798 (ite (> 22803 (+ (+ ?x2612 (- 14 ?x1767)) 24003)) 1 (ite (<= 25203 (+ (+ ?x2612 (- 14 ?x1767)) 24003)) (- 1) 0))))
 (let ((?x3682 (select ?x400 14)))
 (let ((?x5224 (ite (> 22803 (+ (+ ?x2612 (- 15 ?x1767)) 24003)) 1 (ite (<= 25203 (+ (+ ?x2612 (- 15 ?x1767)) 24003)) (- 1) 0))))
 (let ((?x5855 (select ?x400 15)))
 (let ((?x3736 (ite (>= ?x2368 (+ ?x5855 ?x5224)) 15 (ite (>= ?x2368 (+ ?x3682 ?x5798)) 14 ?x3193))))
 (let ((?x3192 (ite (> 22803 (+ (+ ?x2612 (- 16 ?x1767)) 24003)) 1 (ite (<= 25203 (+ (+ ?x2612 (- 16 ?x1767)) 24003)) (- 1) 0))))
 (let ((?x1810 (select ?x400 16)))
 (let ((?x3122 (ite (> 22803 (+ (+ ?x2612 (- 17 ?x1767)) 24003)) 1 (ite (<= 25203 (+ (+ ?x2612 (- 17 ?x1767)) 24003)) (- 1) 0))))
 (let ((?x5010 (select ?x400 17)))
 (let ((?x4174 (ite (>= ?x2368 (+ ?x5010 ?x3122)) 17 (ite (>= ?x2368 (+ ?x1810 ?x3192)) 16 ?x3736))))
 (let ((?x5074 (ite (> 22803 (+ (+ ?x2612 (- 18 ?x1767)) 24003)) 1 (ite (<= 25203 (+ (+ ?x2612 (- 18 ?x1767)) 24003)) (- 1) 0))))
 (let ((?x1347 (select ?x400 18)))
 (let ((?x3449 (ite (> 22803 (+ (+ ?x2612 (- 19 ?x1767)) 24003)) 1 (ite (<= 25203 (+ (+ ?x2612 (- 19 ?x1767)) 24003)) (- 1) 0))))
 (let ((?x2813 (select ?x400 19)))
 (let ((?x412 (ite (>= ?x2368 (+ ?x2813 ?x3449)) 19 (ite (>= ?x2368 (+ ?x1347 ?x5074)) 18 ?x4174))))
 (let ((?x1377 (ite (> 22803 (+ (+ ?x2612 (- 20 ?x1767)) 24003)) 1 (ite (<= 25203 (+ (+ ?x2612 (- 20 ?x1767)) 24003)) (- 1) 0))))
 (let ((?x1654 (select ?x400 20)))
 (let ((?x521 (ite (> 22803 (+ (+ ?x2612 (- 21 ?x1767)) 24003)) 1 (ite (<= 25203 (+ (+ ?x2612 (- 21 ?x1767)) 24003)) (- 1) 0))))
 (let ((?x4865 (select ?x400 21)))
 (let ((?x1741 (ite (>= ?x2368 (+ ?x4865 ?x521)) 21 (ite (>= ?x2368 (+ ?x1654 ?x1377)) 20 ?x412))))
 (let ((?x3580 (ite (> 22803 (+ (+ ?x2612 (- 22 ?x1767)) 24003)) 1 (ite (<= 25203 (+ (+ ?x2612 (- 22 ?x1767)) 24003)) (- 1) 0))))
 (let ((?x3000 (select ?x400 22)))
 (let ((?x1773 (ite (> 22803 (+ (+ ?x2612 (- 23 ?x1767)) 24003)) 1 (ite (<= 25203 (+ (+ ?x2612 (- 23 ?x1767)) 24003)) (- 1) 0))))
 (let ((?x2289 (select ?x400 23)))
 (let ((?x2935 (ite (>= ?x2368 (+ ?x2289 ?x1773)) 23 (ite (>= ?x2368 (+ ?x3000 ?x3580)) 22 ?x1741))))
 (let ((?x4145 (ite (> 22803 (+ (+ ?x2612 (- 24 ?x1767)) 24003)) 1 (ite (<= 25203 (+ (+ ?x2612 (- 24 ?x1767)) 24003)) (- 1) 0))))
 (let ((?x5799 (select ?x400 24)))
 (let ((?x4157 (ite (> 22803 (+ (+ ?x2612 (- 25 ?x1767)) 24003)) 1 (ite (<= 25203 (+ (+ ?x2612 (- 25 ?x1767)) 24003)) (- 1) 0))))
 (let ((?x4240 (select ?x400 25)))
 (let ((?x5775 (ite (>= ?x2368 (+ ?x4240 ?x4157)) 25 (ite (>= ?x2368 (+ ?x5799 ?x4145)) 24 ?x2935))))
 (let ((?x5777 (ite (> 22803 (+ (+ ?x2612 (- 26 ?x1767)) 24003)) 1 (ite (<= 25203 (+ (+ ?x2612 (- 26 ?x1767)) 24003)) (- 1) 0))))
 (let ((?x1107 (select ?x400 26)))
 (let ((?x4804 (ite (> 22803 (+ (+ ?x2612 (- 27 ?x1767)) 24003)) 1 (ite (<= 25203 (+ (+ ?x2612 (- 27 ?x1767)) 24003)) (- 1) 0))))
 (let ((?x4762 (select ?x400 27)))
 (let ((?x811 (ite (>= ?x2368 (+ ?x4762 ?x4804)) 27 (ite (>= ?x2368 (+ ?x1107 ?x5777)) 26 ?x5775))))
 (let ((?x4867 (ite (> 22803 (+ (+ ?x2612 (- 28 ?x1767)) 24003)) 1 (ite (<= 25203 (+ (+ ?x2612 (- 28 ?x1767)) 24003)) (- 1) 0))))
 (let ((?x4715 (select ?x400 28)))
 (let ((?x1352 (ite (> 22803 (+ (+ ?x2612 (- 29 ?x1767)) 24003)) 1 (ite (<= 25203 (+ (+ ?x2612 (- 29 ?x1767)) 24003)) (- 1) 0))))
 (let ((?x4695 (select ?x400 29)))
 (let ((?x580 (ite (>= ?x2368 (+ ?x4695 ?x1352)) 29 (ite (>= ?x2368 (+ ?x4715 ?x4867)) 28 ?x811))))
 (let ((?x4973 (ite (> 22803 (+ (+ ?x2612 (- 30 ?x1767)) 24003)) 1 (ite (<= 25203 (+ (+ ?x2612 (- 30 ?x1767)) 24003)) (- 1) 0))))
 (let ((?x7003 (select ?x400 30)))
 (let ((?x1597 (ite (> 22803 (+ (+ ?x2612 (- 31 ?x1767)) 24003)) 1 (ite (<= 25203 (+ (+ ?x2612 (- 31 ?x1767)) 24003)) (- 1) 0))))
 (let ((?x6009 (select ?x400 31)))
 (let ((?x3397 (ite (>= ?x2368 (+ ?x6009 ?x1597)) 31 (ite (>= ?x2368 (+ ?x7003 ?x4973)) 30 ?x580))))
 (let ((?x6045 (ite (> 22803 (+ (+ ?x2612 (- 32 ?x1767)) 24003)) 1 (ite (<= 25203 (+ (+ ?x2612 (- 32 ?x1767)) 24003)) (- 1) 0))))
 (let ((?x6729 (select ?x400 32)))
 (let ((?x6590 (ite (> 22803 (+ (+ ?x2612 (- 33 ?x1767)) 24003)) 1 (ite (<= 25203 (+ (+ ?x2612 (- 33 ?x1767)) 24003)) (- 1) 0))))
 (let ((?x4716 (select ?x400 33)))
 (let ((?x2732 (ite (>= ?x2368 (+ ?x4716 ?x6590)) 33 (ite (>= ?x2368 (+ ?x6729 ?x6045)) 32 ?x3397))))
 (let ((?x1497 (ite (> 22803 (+ (+ ?x2612 (- 34 ?x1767)) 24003)) 1 (ite (<= 25203 (+ (+ ?x2612 (- 34 ?x1767)) 24003)) (- 1) 0))))
 (let ((?x3891 (select ?x400 34)))
 (let ((?x6845 (ite (> 22803 (+ (+ ?x2612 (- 35 ?x1767)) 24003)) 1 (ite (<= 25203 (+ (+ ?x2612 (- 35 ?x1767)) 24003)) (- 1) 0))))
 (let ((?x4654 (select ?x400 35)))
 (let ((?x6053 (ite (>= ?x2368 (+ ?x4654 ?x6845)) 35 (ite (>= ?x2368 (+ ?x3891 ?x1497)) 34 ?x2732))))
 (let ((?x6153 (ite (> 22803 (+ (+ ?x2612 (- 36 ?x1767)) 24003)) 1 (ite (<= 25203 (+ (+ ?x2612 (- 36 ?x1767)) 24003)) (- 1) 0))))
 (let ((?x1216 (select ?x400 36)))
 (let ((?x2287 (ite (> 22803 (+ (+ ?x2612 (- 37 ?x1767)) 24003)) 1 (ite (<= 25203 (+ (+ ?x2612 (- 37 ?x1767)) 24003)) (- 1) 0))))
 (let ((?x732 (select ?x400 37)))
 (let ((?x5568 (ite (>= ?x2368 (+ ?x732 ?x2287)) 37 (ite (>= ?x2368 (+ ?x1216 ?x6153)) 36 ?x6053))))
 (let ((?x6090 (ite (> 22803 (+ (+ ?x2612 (- 38 ?x1767)) 24003)) 1 (ite (<= 25203 (+ (+ ?x2612 (- 38 ?x1767)) 24003)) (- 1) 0))))
 (let ((?x6091 (select ?x400 38)))
 (let ((?x6868 (ite (> 22803 (+ (+ ?x2612 (- 39 ?x1767)) 24003)) 1 (ite (<= 25203 (+ (+ ?x2612 (- 39 ?x1767)) 24003)) (- 1) 0))))
 (let ((?x1024 (select ?x400 39)))
 (let ((?x1255 (ite (>= ?x2368 (+ ?x1024 ?x6868)) 39 (ite (>= ?x2368 (+ ?x6091 ?x6090)) 38 ?x5568))))
 (let ((?x5382 (ite (> 22803 (+ (+ ?x2612 (- 40 ?x1767)) 24003)) 1 (ite (<= 25203 (+ (+ ?x2612 (- 40 ?x1767)) 24003)) (- 1) 0))))
 (let ((?x2334 (select ?x400 40)))
 (let ((?x5567 (ite (> 22803 (+ (+ ?x2612 (- 41 ?x1767)) 24003)) 1 (ite (<= 25203 (+ (+ ?x2612 (- 41 ?x1767)) 24003)) (- 1) 0))))
 (let ((?x1721 (select ?x400 41)))
 (let ((?x2879 (ite (>= ?x2368 (+ ?x1721 ?x5567)) 41 (ite (>= ?x2368 (+ ?x2334 ?x5382)) 40 ?x1255))))
 (let ((?x6506 (ite (> 22803 (+ (+ ?x2612 (- 42 ?x1767)) 24003)) 1 (ite (<= 25203 (+ (+ ?x2612 (- 42 ?x1767)) 24003)) (- 1) 0))))
 (let ((?x6763 (select ?x400 42)))
 (let ((?x5398 (ite (> 22803 (+ (+ ?x2612 (- 43 ?x1767)) 24003)) 1 (ite (<= 25203 (+ (+ ?x2612 (- 43 ?x1767)) 24003)) (- 1) 0))))
 (let ((?x4039 (select ?x400 43)))
 (let ((?x6812 (ite (>= ?x2368 (+ ?x4039 ?x5398)) 43 (ite (>= ?x2368 (+ ?x6763 ?x6506)) 42 ?x2879))))
 (let ((?x5608 (ite (> 22803 (+ (+ ?x2612 (- 44 ?x1767)) 24003)) 1 (ite (<= 25203 (+ (+ ?x2612 (- 44 ?x1767)) 24003)) (- 1) 0))))
 (let ((?x4026 (select ?x400 44)))
 (let ((?x6665 (ite (> 22803 (+ (+ ?x2612 (- 45 ?x1767)) 24003)) 1 (ite (<= 25203 (+ (+ ?x2612 (- 45 ?x1767)) 24003)) (- 1) 0))))
 (let ((?x5654 (select ?x400 45)))
 (let ((?x6834 (ite (>= ?x2368 (+ ?x5654 ?x6665)) 45 (ite (>= ?x2368 (+ ?x4026 ?x5608)) 44 ?x6812))))
 (let ((?x5590 (ite (> 22803 (+ (+ ?x2612 (- 46 ?x1767)) 24003)) 1 (ite (<= 25203 (+ (+ ?x2612 (- 46 ?x1767)) 24003)) (- 1) 0))))
 (let ((?x5016 (select ?x400 46)))
 (let ((?x5090 (ite (> 22803 (+ (+ ?x2612 (- 47 ?x1767)) 24003)) 1 (ite (<= 25203 (+ (+ ?x2612 (- 47 ?x1767)) 24003)) (- 1) 0))))
 (let ((?x5405 (select ?x400 47)))
 (let ((?x6860 (ite (>= ?x2368 (+ ?x5405 ?x5090)) 47 (ite (>= ?x2368 (+ ?x5016 ?x5590)) 46 ?x6834))))
 (let ((?x6861 (+ ?x2612 (- ?x6860 ?x1767))))
 (let ((?x1601 (+ ?x6861 24003)))
 (let ((?x6921 (+ (select ?x400 ?x6860) (ite (> 22803 ?x1601) 1 (ite (<= 25203 ?x1601) (- 1) 0)))))
 (let ((?x6916 (- ?x2368 ?x6921)))
 (let ((?x5558 (ite (or (= 22802 ?x1601) (= 25202 ?x1601)) 28 (select ?x306 ?x6860))))
 (let (($x5270 (= y_beta (ite (= 1 (ite (>= ?x6916 ?x5558) 1 0)) (- ?x6916 ?x5558) ?x6916))))
 (and (= y_months (+ ?x6861 (ite (>= ?x6916 ?x5558) 1 0))) $x5270)))))))))))))))))))))))))))))))))))))))))))))))))))))))))))))))))))))))))))))))))))))))))))))))))))))))))))))))))))))))))))))))))))))))))))))))))))))))))))))))))))))))))))))))))))))))))))))))))))))
(assert
 (let ((?x6941 (+ x_months 0)))
(let ((?x3760 (mod ?x6941 48)))
(let ((?x4786 (ite (> 22803 (+ ?x6941 24003)) 1 (ite (<= 25203 (+ ?x6941 24003)) (- 1) 0))))
(let ((?x211 ((as const (Array Int Int)) 0)))
(let ((?x213 (store ?x211 0 31)))
(let ((?x216 (store ?x213 1 30)))
(let ((?x218 (store ?x216 2 31)))
(let ((?x220 (store ?x218 3 30)))
(let ((?x222 (store ?x220 4 31)))
(let ((?x224 (store ?x222 5 31)))
(let ((?x226 (store ?x224 6 30)))
(let ((?x228 (store ?x226 7 31)))
(let ((?x230 (store ?x228 8 30)))
(let ((?x232 (store ?x230 9 31)))
(let ((?x234 (store ?x232 10 31)))
(let ((?x237 (store ?x234 11 28)))
(let ((?x239 (store ?x237 12 31)))
(let ((?x241 (store ?x239 13 30)))
(let ((?x243 (store ?x241 14 31)))
(let ((?x245 (store ?x243 15 30)))
(let ((?x247 (store ?x245 16 31)))
(let ((?x249 (store ?x247 17 31)))
(let ((?x251 (store ?x249 18 30)))
(let ((?x253 (store ?x251 19 31)))
(let ((?x255 (store ?x253 20 30)))
(let ((?x257 (store ?x255 21 31)))
(let ((?x259 (store ?x257 22 31)))
(let ((?x261 (store ?x259 23 28)))
(let ((?x263 (store ?x261 24 31)))
(let ((?x265 (store ?x263 25 30)))
(let ((?x267 (store ?x265 26 31)))
(let ((?x269 (store ?x267 27 30)))
(let ((?x270 (store ?x269 28 31)))
(let ((?x272 (store ?x270 29 31)))
(let ((?x273 (store ?x272 30 30)))
(let ((?x274 (store ?x273 31 31)))
(let ((?x276 (store ?x274 32 30)))
(let ((?x278 (store ?x276 33 31)))
(let ((?x280 (store ?x278 34 31)))
(let ((?x282 (store ?x280 35 28)))
(let ((?x284 (store ?x282 36 31)))
(let ((?x286 (store ?x284 37 30)))
(let ((?x288 (store ?x286 38 31)))
(let ((?x290 (store ?x288 39 30)))
(let ((?x292 (store ?x290 40 31)))
(let ((?x294 (store ?x292 41 31)))
(let ((?x296 (store ?x294 42 30)))
(let ((?x298 (store ?x296 43 31)))
(let ((?x300 (store ?x298 44 30)))
(let ((?x302 (store ?x300 45 31)))
(let ((?x304 (store ?x302 46 31)))
(let ((?x306 (store ?x304 47 29)))
(let ((?x3491 (ite (or (= 22802 (+ ?x6941 24003)) (= 25202 (+ ?x6941 24003))) 28 (select ?x306 ?x3760))))
(let ((?x5417 (- ?x3491 1)))
(let (($x1982 (> 0 x_beta)))
(let ((?x312 (store (store (store (store ?x211 0 0) 1 31) 2 61) 3 92)))
(let ((?x320 (store (store (store (store ?x312 4 122) 5 153) 6 184) 7 214)))
(let ((?x328 (store (store (store (store ?x320 8 245) 9 275) 10 306) 11 337)))
(let ((?x336 (store (store (store (store ?x328 12 365) 13 396) 14 426) 15 457)))
(let ((?x344 (store (store (store (store ?x336 16 487) 17 518) 18 549) 19 579)))
(let ((?x352 (store (store (store (store ?x344 20 610) 21 640) 22 671) 23 702)))
(let ((?x360 (store (store (store (store ?x352 24 730) 25 761) 26 791) 27 822)))
(let ((?x368 (store (store (store (store ?x360 28 852) 29 883) 30 914) 31 944)))
(let ((?x376 (store (store (store (store ?x368 32 975) 33 1005) 34 1036) 35 1067)))
(let ((?x384 (store (store (store (store ?x376 36 1095) 37 1126) 38 1156) 39 1187)))
(let ((?x392 (store (store (store (store ?x384 40 1217) 41 1248) 42 1279) 43 1309)))
(let ((?x400 (store (store (store (store ?x392 44 1340) 45 1370) 46 1401) 47 1432)))
(let ((?x6513 (+ (select ?x400 ?x3760) (ite $x1982 0 (ite (> x_beta ?x5417) ?x5417 x_beta)))))
(let ((?x3752 (+ (+ ?x6513 ?x4786) 365)))
(let ((?x4751 (+ ?x6941 (* (div ?x3752 1461) 48))))
(let ((?x5127 (+ (+ ?x4751 (- 1 ?x3760)) 24003)))
(let ((?x2621 (select ?x400 1)))
(let ((?x1350 (mod ?x3752 1461)))
(let (($x6434 (>= ?x1350 (+ ?x2621 (ite (> 22803 ?x5127) 1 (ite (<= 25203 ?x5127) (- 1) 0))))))
(let ((?x4852 (ite (> 22803 (+ (+ ?x4751 (- 2 ?x3760)) 24003)) 1 (ite (<= 25203 (+ (+ ?x4751 (- 2 ?x3760)) 24003)) (- 1) 0))))
(let ((?x4819 (select ?x400 2)))
(let ((?x6814 (ite (> 22803 (+ (+ ?x4751 (- 3 ?x3760)) 24003)) 1 (ite (<= 25203 (+ (+ ?x4751 (- 3 ?x3760)) 24003)) (- 1) 0))))
(let ((?x1470 (select ?x400 3)))
(let ((?x6816 (ite (>= ?x1350 (+ ?x1470 ?x6814)) 3 (ite (>= ?x1350 (+ ?x4819 ?x4852)) 2 (ite $x6434 1 0)))))
(let ((?x2977 (ite (> 22803 (+ (+ ?x4751 (- 4 ?x3760)) 24003)) 1 (ite (<= 25203 (+ (+ ?x4751 (- 4 ?x3760)) 24003)) (- 1) 0))))
(let ((?x4052 (select ?x400 4)))
(let ((?x4594 (ite (> 22803 (+ (+ ?x4751 (- 5 ?x3760)) 24003)) 1 (ite (<= 25203 (+ (+ ?x4751 (- 5 ?x3760)) 24003)) (- 1) 0))))
(let ((?x1330 (select ?x400 5)))
(let ((?x852 (ite (>= ?x1350 (+ ?x1330 ?x4594)) 5 (ite (>= ?x1350 (+ ?x4052 ?x2977)) 4 ?x6816))))
(let ((?x3320 (ite (> 22803 (+ (+ ?x4751 (- 6 ?x3760)) 24003)) 1 (ite (<= 25203 (+ (+ ?x4751 (- 6 ?x3760)) 24003)) (- 1) 0))))
(let ((?x903 (select ?x400 6)))
(let ((?x6750 (ite (> 22803 (+ (+ ?x4751 (- 7 ?x3760)) 24003)) 1 (ite (<= 25203 (+ (+ ?x4751 (- 7 ?x3760)) 24003)) (- 1) 0))))
(let ((?x5203 (select ?x400 7)))
(let ((?x3289 (ite (>= ?x1350 (+ ?x5203 ?x6750)) 7 (ite (>= ?x1350 (+ ?x903 ?x3320)) 6 ?x852))))
(let ((?x5362 (ite (> 22803 (+ (+ ?x4751 (- 8 ?x3760)) 24003)) 1 (ite (<= 25203 (+ (+ ?x4751 (- 8 ?x3760)) 24003)) (- 1) 0))))
(let ((?x3407 (select ?x400 8)))
(let ((?x4034 (ite (> 22803 (+ (+ ?x4751 (- 9 ?x3760)) 24003)) 1 (ite (<= 25203 (+ (+ ?x4751 (- 9 ?x3760)) 24003)) (- 1) 0))))
(let ((?x2182 (select ?x400 9)))
(let ((?x6258 (ite (>= ?x1350 (+ ?x2182 ?x4034)) 9 (ite (>= ?x1350 (+ ?x3407 ?x5362)) 8 ?x3289))))
(let ((?x4705 (ite (> 22803 (+ (+ ?x4751 (- 10 ?x3760)) 24003)) 1 (ite (<= 25203 (+ (+ ?x4751 (- 10 ?x3760)) 24003)) (- 1) 0))))
(let ((?x3136 (select ?x400 10)))
(let ((?x4584 (ite (> 22803 (+ (+ ?x4751 (- 11 ?x3760)) 24003)) 1 (ite (<= 25203 (+ (+ ?x4751 (- 11 ?x3760)) 24003)) (- 1) 0))))
(let ((?x1587 (select ?x400 11)))
(let ((?x3927 (ite (>= ?x1350 (+ ?x1587 ?x4584)) 11 (ite (>= ?x1350 (+ ?x3136 ?x4705)) 10 ?x6258))))
(let ((?x2734 (ite (> 22803 (+ (+ ?x4751 (- 12 ?x3760)) 24003)) 1 (ite (<= 25203 (+ (+ ?x4751 (- 12 ?x3760)) 24003)) (- 1) 0))))
(let ((?x1383 (select ?x400 12)))
(let ((?x6948 (ite (> 22803 (+ (+ ?x4751 (- 13 ?x3760)) 24003)) 1 (ite (<= 25203 (+ (+ ?x4751 (- 13 ?x3760)) 24003)) (- 1) 0))))
(let ((?x4161 (select ?x400 13)))
(let ((?x592 (ite (>= ?x1350 (+ ?x4161 ?x6948)) 13 (ite (>= ?x1350 (+ ?x1383 ?x2734)) 12 ?x3927))))
(let ((?x5665 (ite (> 22803 (+ (+ ?x4751 (- 14 ?x3760)) 24003)) 1 (ite (<= 25203 (+ (+ ?x4751 (- 14 ?x3760)) 24003)) (- 1) 0))))
(let ((?x3682 (select ?x400 14)))
(let ((?x6938 (ite (> 22803 (+ (+ ?x4751 (- 15 ?x3760)) 24003)) 1 (ite (<= 25203 (+ (+ ?x4751 (- 15 ?x3760)) 24003)) (- 1) 0))))
(let ((?x5855 (select ?x400 15)))
(let ((?x6892 (ite (>= ?x1350 (+ ?x5855 ?x6938)) 15 (ite (>= ?x1350 (+ ?x3682 ?x5665)) 14 ?x592))))
(let ((?x5884 (ite (> 22803 (+ (+ ?x4751 (- 16 ?x3760)) 24003)) 1 (ite (<= 25203 (+ (+ ?x4751 (- 16 ?x3760)) 24003)) (- 1) 0))))
(let ((?x1810 (select ?x400 16)))
(let ((?x5878 (ite (> 22803 (+ (+ ?x4751 (- 17 ?x3760)) 24003)) 1 (ite (<= 25203 (+ (+ ?x4751 (- 17 ?x3760)) 24003)) (- 1) 0))))
(let ((?x5010 (select ?x400 17)))
(let ((?x5763 (ite (>= ?x1350 (+ ?x5010 ?x5878)) 17 (ite (>= ?x1350 (+ ?x1810 ?x5884)) 16 ?x6892))))
(let ((?x3930 (ite (> 22803 (+ (+ ?x4751 (- 18 ?x3760)) 24003)) 1 (ite (<= 25203 (+ (+ ?x4751 (- 18 ?x3760)) 24003)) (- 1) 0))))
(let ((?x1347 (select ?x400 18)))
(let ((?x2706 (ite (> 22803 (+ (+ ?x4751 (- 19 ?x3760)) 24003)) 1 (ite (<= 25203 (+ (+ ?x4751 (- 19 ?x3760)) 24003)) (- 1) 0))))
(let ((?x2813 (select ?x400 19)))
(let ((?x5063 (ite (>= ?x1350 (+ ?x2813 ?x2706)) 19 (ite (>= ?x1350 (+ ?x1347 ?x3930)) 18 ?x5763))))
(let ((?x4456 (ite (> 22803 (+ (+ ?x4751 (- 20 ?x3760)) 24003)) 1 (ite (<= 25203 (+ (+ ?x4751 (- 20 ?x3760)) 24003)) (- 1) 0))))
(let ((?x1654 (select ?x400 20)))
(let ((?x5313 (ite (> 22803 (+ (+ ?x4751 (- 21 ?x3760)) 24003)) 1 (ite (<= 25203 (+ (+ ?x4751 (- 21 ?x3760)) 24003)) (- 1) 0))))
(let ((?x4865 (select ?x400 21)))
(let ((?x5349 (ite (>= ?x1350 (+ ?x4865 ?x5313)) 21 (ite (>= ?x1350 (+ ?x1654 ?x4456)) 20 ?x5063))))
(let ((?x1669 (ite (> 22803 (+ (+ ?x4751 (- 22 ?x3760)) 24003)) 1 (ite (<= 25203 (+ (+ ?x4751 (- 22 ?x3760)) 24003)) (- 1) 0))))
(let ((?x3000 (select ?x400 22)))
(let ((?x5163 (ite (> 22803 (+ (+ ?x4751 (- 23 ?x3760)) 24003)) 1 (ite (<= 25203 (+ (+ ?x4751 (- 23 ?x3760)) 24003)) (- 1) 0))))
(let ((?x2289 (select ?x400 23)))
(let ((?x4829 (ite (>= ?x1350 (+ ?x2289 ?x5163)) 23 (ite (>= ?x1350 (+ ?x3000 ?x1669)) 22 ?x5349))))
(let ((?x4209 (ite (> 22803 (+ (+ ?x4751 (- 24 ?x3760)) 24003)) 1 (ite (<= 25203 (+ (+ ?x4751 (- 24 ?x3760)) 24003)) (- 1) 0))))
(let ((?x5799 (select ?x400 24)))
(let ((?x4002 (ite (> 22803 (+ (+ ?x4751 (- 25 ?x3760)) 24003)) 1 (ite (<= 25203 (+ (+ ?x4751 (- 25 ?x3760)) 24003)) (- 1) 0))))
(let ((?x4240 (select ?x400 25)))
(let ((?x5893 (ite (>= ?x1350 (+ ?x4240 ?x4002)) 25 (ite (>= ?x1350 (+ ?x5799 ?x4209)) 24 ?x4829))))
(let ((?x2436 (ite (> 22803 (+ (+ ?x4751 (- 26 ?x3760)) 24003)) 1 (ite (<= 25203 (+ (+ ?x4751 (- 26 ?x3760)) 24003)) (- 1) 0))))
(let ((?x1107 (select ?x400 26)))
(let ((?x5295 (ite (> 22803 (+ (+ ?x4751 (- 27 ?x3760)) 24003)) 1 (ite (<= 25203 (+ (+ ?x4751 (- 27 ?x3760)) 24003)) (- 1) 0))))
(let ((?x4762 (select ?x400 27)))
(let ((?x2777 (ite (>= ?x1350 (+ ?x4762 ?x5295)) 27 (ite (>= ?x1350 (+ ?x1107 ?x2436)) 26 ?x5893))))
(let ((?x5528 (ite (> 22803 (+ (+ ?x4751 (- 28 ?x3760)) 24003)) 1 (ite (<= 25203 (+ (+ ?x4751 (- 28 ?x3760)) 24003)) (- 1) 0))))
(let ((?x4715 (select ?x400 28)))
(let ((?x1111 (ite (> 22803 (+ (+ ?x4751 (- 29 ?x3760)) 24003)) 1 (ite (<= 25203 (+ (+ ?x4751 (- 29 ?x3760)) 24003)) (- 1) 0))))
(let ((?x4695 (select ?x400 29)))
(let ((?x2989 (ite (>= ?x1350 (+ ?x4695 ?x1111)) 29 (ite (>= ?x1350 (+ ?x4715 ?x5528)) 28 ?x2777))))
(let ((?x547 (ite (> 22803 (+ (+ ?x4751 (- 30 ?x3760)) 24003)) 1 (ite (<= 25203 (+ (+ ?x4751 (- 30 ?x3760)) 24003)) (- 1) 0))))
(let ((?x7003 (select ?x400 30)))
(let ((?x6236 (ite (> 22803 (+ (+ ?x4751 (- 31 ?x3760)) 24003)) 1 (ite (<= 25203 (+ (+ ?x4751 (- 31 ?x3760)) 24003)) (- 1) 0))))
(let ((?x6009 (select ?x400 31)))
(let ((?x6230 (ite (>= ?x1350 (+ ?x6009 ?x6236)) 31 (ite (>= ?x1350 (+ ?x7003 ?x547)) 30 ?x2989))))
(let ((?x5279 (ite (> 22803 (+ (+ ?x4751 (- 32 ?x3760)) 24003)) 1 (ite (<= 25203 (+ (+ ?x4751 (- 32 ?x3760)) 24003)) (- 1) 0))))
(let ((?x6729 (select ?x400 32)))
(let ((?x3162 (ite (> 22803 (+ (+ ?x4751 (- 33 ?x3760)) 24003)) 1 (ite (<= 25203 (+ (+ ?x4751 (- 33 ?x3760)) 24003)) (- 1) 0))))
(let ((?x4716 (select ?x400 33)))
(let ((?x3294 (ite (>= ?x1350 (+ ?x4716 ?x3162)) 33 (ite (>= ?x1350 (+ ?x6729 ?x5279)) 32 ?x6230))))
(let ((?x5965 (ite (> 22803 (+ (+ ?x4751 (- 34 ?x3760)) 24003)) 1 (ite (<= 25203 (+ (+ ?x4751 (- 34 ?x3760)) 24003)) (- 1) 0))))
(let ((?x3891 (select ?x400 34)))
(let ((?x4812 (ite (> 22803 (+ (+ ?x4751 (- 35 ?x3760)) 24003)) 1 (ite (<= 25203 (+ (+ ?x4751 (- 35 ?x3760)) 24003)) (- 1) 0))))
(let ((?x4654 (select ?x400 35)))
(let ((?x5453 (ite (>= ?x1350 (+ ?x4654 ?x4812)) 35 (ite (>= ?x1350 (+ ?x3891 ?x5965)) 34 ?x3294))))
(let ((?x5753 (ite (> 22803 (+ (+ ?x4751 (- 36 ?x3760)) 24003)) 1 (ite (<= 25203 (+ (+ ?x4751 (- 36 ?x3760)) 24003)) (- 1) 0))))
(let ((?x1216 (select ?x400 36)))
(let ((?x3077 (ite (> 22803 (+ (+ ?x4751 (- 37 ?x3760)) 24003)) 1 (ite (<= 25203 (+ (+ ?x4751 (- 37 ?x3760)) 24003)) (- 1) 0))))
(let ((?x732 (select ?x400 37)))
(let ((?x2011 (ite (>= ?x1350 (+ ?x732 ?x3077)) 37 (ite (>= ?x1350 (+ ?x1216 ?x5753)) 36 ?x5453))))
(let ((?x2010 (ite (> 22803 (+ (+ ?x4751 (- 38 ?x3760)) 24003)) 1 (ite (<= 25203 (+ (+ ?x4751 (- 38 ?x3760)) 24003)) (- 1) 0))))
(let ((?x6091 (select ?x400 38)))
(let ((?x2658 (ite (> 22803 (+ (+ ?x4751 (- 39 ?x3760)) 24003)) 1 (ite (<= 25203 (+ (+ ?x4751 (- 39 ?x3760)) 24003)) (- 1) 0))))
(let ((?x1024 (select ?x400 39)))
(let ((?x869 (ite (>= ?x1350 (+ ?x1024 ?x2658)) 39 (ite (>= ?x1350 (+ ?x6091 ?x2010)) 38 ?x2011))))
(let ((?x4286 (ite (> 22803 (+ (+ ?x4751 (- 40 ?x3760)) 24003)) 1 (ite (<= 25203 (+ (+ ?x4751 (- 40 ?x3760)) 24003)) (- 1) 0))))
(let ((?x2334 (select ?x400 40)))
(let ((?x4266 (ite (> 22803 (+ (+ ?x4751 (- 41 ?x3760)) 24003)) 1 (ite (<= 25203 (+ (+ ?x4751 (- 41 ?x3760)) 24003)) (- 1) 0))))
(let ((?x1721 (select ?x400 41)))
(let ((?x5314 (ite (>= ?x1350 (+ ?x1721 ?x4266)) 41 (ite (>= ?x1350 (+ ?x2334 ?x4286)) 40 ?x869))))
(let ((?x611 (ite (> 22803 (+ (+ ?x4751 (- 42 ?x3760)) 24003)) 1 (ite (<= 25203 (+ (+ ?x4751 (- 42 ?x3760)) 24003)) (- 1) 0))))
(let ((?x6763 (select ?x400 42)))
(let ((?x3886 (ite (> 22803 (+ (+ ?x4751 (- 43 ?x3760)) 24003)) 1 (ite (<= 25203 (+ (+ ?x4751 (- 43 ?x3760)) 24003)) (- 1) 0))))
(let ((?x4039 (select ?x400 43)))
(let ((?x3505 (ite (>= ?x1350 (+ ?x4039 ?x3886)) 43 (ite (>= ?x1350 (+ ?x6763 ?x611)) 42 ?x5314))))
(let ((?x3509 (ite (> 22803 (+ (+ ?x4751 (- 44 ?x3760)) 24003)) 1 (ite (<= 25203 (+ (+ ?x4751 (- 44 ?x3760)) 24003)) (- 1) 0))))
(let ((?x4026 (select ?x400 44)))
(let ((?x444 (ite (> 22803 (+ (+ ?x4751 (- 45 ?x3760)) 24003)) 1 (ite (<= 25203 (+ (+ ?x4751 (- 45 ?x3760)) 24003)) (- 1) 0))))
(let ((?x5654 (select ?x400 45)))
(let ((?x3637 (ite (>= ?x1350 (+ ?x5654 ?x444)) 45 (ite (>= ?x1350 (+ ?x4026 ?x3509)) 44 ?x3505))))
(let ((?x2694 (ite (> 22803 (+ (+ ?x4751 (- 46 ?x3760)) 24003)) 1 (ite (<= 25203 (+ (+ ?x4751 (- 46 ?x3760)) 24003)) (- 1) 0))))
(let ((?x5016 (select ?x400 46)))
(let ((?x2186 (ite (> 22803 (+ (+ ?x4751 (- 47 ?x3760)) 24003)) 1 (ite (<= 25203 (+ (+ ?x4751 (- 47 ?x3760)) 24003)) (- 1) 0))))
(let ((?x5405 (select ?x400 47)))
(let ((?x5355 (ite (>= ?x1350 (+ ?x5405 ?x2186)) 47 (ite (>= ?x1350 (+ ?x5016 ?x2694)) 46 ?x3637))))
(let ((?x5119 (+ ?x4751 (- ?x5355 ?x3760))))
(let ((?x5267 (+ ?x5119 24003)))
(let ((?x5936 (+ (select ?x400 ?x5355) (ite (> 22803 ?x5267) 1 (ite (<= 25203 ?x5267) (- 1) 0)))))
(let ((?x5934 (- ?x1350 ?x5936)))
(let ((?x1007 (ite (or (= 22802 ?x5267) (= 25202 ?x5267)) 28 (select ?x306 ?x5355))))
(let (($x5008 (= y_beta (ite (= 1 (ite (>= ?x5934 ?x1007) 1 0)) (- ?x5934 ?x1007) ?x5934))))
(not (and (= y_months (+ ?x5119 (ite (>= ?x5934 ?x1007) 1 0))) $x5008))))))))))))))))))))))))))))))))))))))))))))))))))))))))))))))))))))))))))))))))))))))))))))))))))))))))))))))))))))))))))))))))))))))))))))))))))))))))))))))))))))))))))))))))))))))))))))))))))))))
(check-sat)
